; startingXparting-the-wild-horses-mane
(set-info :status unknown)
(set-logic QF_AUFLIRA)
(declare-fun |HandRight Norm| () Real)
(declare-fun |HandRight Z| () Real)
(declare-fun |SpineMid Norm| () Real)
(declare-fun |SpineShoulder Norm| () Real)
(declare-fun |ShoulderRight Norm| () Real)
(declare-fun |ShoulderRight Z| () Real)
(declare-fun |ElbowRight Norm| () Real)
(declare-fun |WristRight Norm| () Real)
(declare-fun |HandLeft Norm| () Real)
(declare-fun |HandLeft Z| () Real)
(declare-fun |ShoulderLeft Norm| () Real)
(declare-fun |ShoulderLeft Z| () Real)
(declare-fun |ElbowLeft Norm| () Real)
(declare-fun |WristLeft Norm| () Real)
(declare-fun |HandRight Y| () Real)
(declare-fun |ShoulderRight Y| () Real)
(declare-fun |HandLeft Y| () Real)
(declare-fun |ShoulderLeft Y| () Real)
(declare-fun |HandRight X| () Real)
(declare-fun |ShoulderRight X| () Real)
(declare-fun |HandLeft X| () Real)
(declare-fun |ShoulderLeft X| () Real)
(declare-fun |AnkleLeft Z| () Real)
(declare-fun |KneeRight Z| () Real)
(declare-fun |AnkleLeft Y| () Real)
(declare-fun |KneeRight Y| () Real)
(declare-fun |AnkleLeft X| () Real)
(declare-fun |KneeRight X| () Real)
(declare-fun |KneeLeft Z| () Real)
(declare-fun |KneeLeft Y| () Real)
(declare-fun |KneeLeft X| () Real)
(declare-fun |ThumbRight Z| () Real)
(declare-fun |ThumbRight Y| () Real)
(declare-fun |ThumbRight X| () Real)
(assert
(let ((?x3920 (* |HandRight Z| |HandRight Norm|)))
(let ((?x6948 (* 0.0 |SpineMid Norm|)))
(let ((?x8186 (* 0.0 |SpineShoulder Norm|)))
(let ((?x4101 (* |ShoulderRight Z| |ShoulderRight Norm|)))
(let ((?x179 (* (~ (/ 1.0 2.0)) 0.0)))
(let ((?x6594 (* (/ 433.0 500.0) 1.0)))
(let ((?x6919 (+ ?x6594 ?x179)))
(let ((?x176 (* (/ 1.0 2.0) 0.0)))
(let ((?x6121 (+ ?x6594 ?x176)))
(let (($x350 (>= 1.0 0.0)))
(let ((?x4940 (ite $x350 ?x6121 ?x6919)))
(let ((?x351 (- 0.0 1.0)))
(let ((?x352 (ite $x350 1.0 ?x351)))
(let ((?x113 (- 0.0 0.0)))
(let (($x112 (>= 0.0 0.0)))
(let ((?x114 (ite $x112 0.0 ?x113)))
(let (($x5024 (>= ?x114 ?x352)))
(let ((?x4943 (ite $x5024 1.0 ?x4940)))
(let ((?x6094 (* ?x4943 |ElbowRight Norm|)))
(let ((?x2637 (* 1.0 |WristRight Norm|)))
(let ((?x5111 (+ 0.0 ?x3920)))
(let ((?x7722 (+ ?x5111 ?x2637)))
(let ((?x8047 (+ ?x7722 ?x6094)))
(let ((?x2508 (+ ?x8047 ?x4101)))
(let ((?x8266 (+ ?x2508 ?x8186)))
(let ((?x7330 (+ ?x8266 ?x6948)))
(let ((?x7979 (+ ?x7330 ?x3920)))
(let ((?x5357 (* |HandLeft Z| |HandLeft Norm|)))
(let ((?x420 (* |ShoulderLeft Z| |ShoulderLeft Norm|)))
(let ((?x169 (* (/ 433.0 500.0) 0.0)))
(let ((?x4162 (+ ?x169 ?x179)))
(let ((?x5213 (+ ?x169 ?x176)))
(let ((?x4938 (ite $x112 ?x5213 ?x4162)))
(let ((?x4935 (ite $x5024 ?x4938 0.0)))
(let ((?x5544 (* (~ (/ 1.0 2.0)) ?x4935)))
(let ((?x3851 (* (/ 433.0 500.0) ?x4943)))
(let ((?x3977 (+ ?x3851 ?x5544)))
(let ((?x4919 (* (/ 1.0 2.0) ?x4935)))
(let ((?x4857 (+ ?x3851 ?x4919)))
(let (($x3029 (>= ?x4943 0.0)))
(let ((?x3639 (- 0.0 ?x4943)))
(let ((?x4903 (ite $x3029 ?x4943 ?x3639)))
(let ((?x6426 (* (/ 1.0 2.0) 1.0)))
(let ((?x7006 (+ ?x6426 ?x169)))
(let ((?x6458 (* (~ (/ 1.0 2.0)) 1.0)))
(let ((?x6448 (+ ?x6458 ?x169)))
(let ((?x4934 (ite $x350 ?x6448 ?x7006)))
(let ((?x5101 (+ ?x176 ?x169)))
(let ((?x3898 (+ ?x179 ?x169)))
(let ((?x4932 (ite $x112 ?x3898 ?x5101)))
(let ((?x4937 (ite $x5024 ?x4932 ?x4934)))
(let ((?x4954 (- 0.0 ?x4937)))
(let (($x4059 (>= ?x4937 0.0)))
(let ((?x3911 (ite $x4059 ?x4937 ?x4954)))
(let (($x5230 (>= ?x3911 ?x4903)))
(let ((?x6744 (ite $x5230 ?x4943 (ite $x3029 ?x4857 ?x3977))))
(let ((?x1938 (* ?x6744 |ElbowLeft Norm|)))
(let ((?x8356 (ite $x5230 ?x4943 (ite $x3029 ?x3977 ?x4857))))
(let ((?x10856 (* ?x8356 |WristLeft Norm|)))
(let ((?x4357 (+ 0.0 ?x5357)))
(let ((?x11227 (+ ?x4357 ?x10856)))
(let ((?x9016 (+ ?x11227 ?x1938)))
(let ((?x7668 (+ ?x9016 ?x420)))
(let ((?x7191 (+ ?x7668 ?x8186)))
(let ((?x10811 (+ ?x7191 ?x6948)))
(let ((?x7178 (+ ?x10811 ?x5357)))
(let ((?x11468 (- ?x7178 ?x7979)))
(let ((?x9162 (ite (>= ?x11468 0.0) ?x11468 (- 0.0 ?x11468))))
(let ((?x4421 (* |HandRight Y| |HandRight Norm|)))
(let ((?x11271 (* 1.0 |SpineMid Norm|)))
(let ((?x4285 (* 1.0 |SpineShoulder Norm|)))
(let ((?x5302 (* |ShoulderRight Y| |ShoulderRight Norm|)))
(let ((?x5829 (* ?x4937 |ElbowRight Norm|)))
(let ((?x1936 (* 0.0 |WristRight Norm|)))
(let ((?x4697 (+ 0.0 ?x4421)))
(let ((?x6780 (+ ?x4697 ?x1936)))
(let ((?x8370 (+ ?x6780 ?x5829)))
(let ((?x1242 (+ ?x8370 ?x5302)))
(let ((?x2320 (+ ?x1242 ?x4285)))
(let ((?x7194 (+ ?x2320 ?x11271)))
(let ((?x7014 (+ ?x7194 ?x4421)))
(let ((?x5556 (* |HandLeft Y| |HandLeft Norm|)))
(let ((?x417 (* |ShoulderLeft Y| |ShoulderLeft Norm|)))
(let ((?x4709 (* (/ 433.0 500.0) ?x4935)))
(let ((?x719 (* (/ 1.0 2.0) ?x4943)))
(let ((?x3692 (+ ?x719 ?x4709)))
(let ((?x5473 (* (~ (/ 1.0 2.0)) ?x4943)))
(let ((?x5102 (+ ?x5473 ?x4709)))
(let ((?x7219 (ite $x5230 (ite $x4059 (+ (* (~ (/ 1.0 2.0)) ?x4937) ?x4709) (+ (* (/ 1.0 2.0) ?x4937) ?x4709)) (ite $x3029 ?x5102 ?x3692))))
(let ((?x2023 (* ?x7219 |ElbowLeft Norm|)))
(let ((?x11190 (ite $x5230 (ite $x4059 (+ (* (/ 1.0 2.0) ?x4937) ?x4709) (+ (* (~ (/ 1.0 2.0)) ?x4937) ?x4709)) (ite $x3029 ?x3692 ?x5102))))
(let ((?x9163 (* ?x11190 |WristLeft Norm|)))
(let ((?x3426 (+ 0.0 ?x5556)))
(let ((?x7833 (+ ?x3426 ?x9163)))
(let ((?x2654 (+ ?x7833 ?x2023)))
(let ((?x7836 (+ ?x2654 ?x417)))
(let ((?x10456 (+ ?x7836 ?x4285)))
(let ((?x7421 (+ ?x10456 ?x11271)))
(let ((?x6757 (+ ?x7421 ?x5556)))
(let ((?x6313 (- ?x6757 ?x7014)))
(let ((?x6586 (ite (>= ?x6313 0.0) ?x6313 (- 0.0 ?x6313))))
(let ((?x5582 (* |HandRight X| |HandRight Norm|)))
(let ((?x5113 (* |ShoulderRight X| |ShoulderRight Norm|)))
(let ((?x6759 (* ?x4935 |ElbowRight Norm|)))
(let ((?x4842 (+ 0.0 ?x5582)))
(let ((?x11186 (+ ?x4842 ?x1936)))
(let ((?x2264 (+ ?x11186 ?x6759)))
(let ((?x7246 (+ ?x2264 ?x5113)))
(let ((?x5148 (+ ?x7246 ?x8186)))
(let ((?x10523 (+ ?x5148 ?x6948)))
(let ((?x7811 (+ ?x10523 ?x5582)))
(let ((?x5403 (* |HandLeft X| |HandLeft Norm|)))
(let ((?x416 (* |ShoulderLeft X| |ShoulderLeft Norm|)))
(let ((?x5726 (ite $x5230 (ite $x4059 (+ (* (/ 433.0 500.0) ?x4937) ?x4919) (+ (* (/ 433.0 500.0) ?x4937) ?x5544)) ?x4937)))
(let ((?x1186 (* ?x5726 |ElbowLeft Norm|)))
(let ((?x11665 (ite $x5230 (ite $x4059 (+ (* (/ 433.0 500.0) ?x4937) ?x5544) (+ (* (/ 433.0 500.0) ?x4937) ?x4919)) ?x4937)))
(let ((?x9819 (* ?x11665 |WristLeft Norm|)))
(let ((?x4526 (+ 0.0 ?x5403)))
(let ((?x7063 (+ ?x4526 ?x9819)))
(let ((?x2638 (+ ?x7063 ?x1186)))
(let ((?x248 (+ ?x2638 ?x416)))
(let ((?x11378 (+ ?x248 ?x8186)))
(let ((?x6643 (+ ?x11378 ?x6948)))
(let ((?x11208 (+ ?x6643 ?x5403)))
(let ((?x7840 (- ?x11208 ?x7811)))
(let ((?x7419 (ite (>= ?x7840 0.0) ?x7840 (- 0.0 ?x7840))))
(let ((?x10261 (ite (>= ?x7419 ?x6586) ?x7419 ?x6586)))
(let (($x1205 (and (and true (> ?x6757 (+ ?x7014 (/ 1.0 10.0)))) (not (< (ite (>= ?x10261 ?x9162) ?x10261 ?x9162) (/ 1.0 5.0))))))
(let ((?x10998 (* 0.0 |ElbowLeft Norm|)))
(let ((?x6344 (* 1.0 |WristLeft Norm|)))
(let ((?x11444 (+ ?x4357 ?x6344)))
(let ((?x10881 (+ ?x11444 ?x10998)))
(let ((?x11051 (+ ?x10881 ?x420)))
(let ((?x11395 (+ ?x11051 ?x8186)))
(let ((?x11157 (+ ?x11395 ?x6948)))
(let ((?x11269 (+ ?x11157 ?x5357)))
(let ((?x10839 (* 0.0 |ElbowRight Norm|)))
(let ((?x7491 (+ ?x7722 ?x10839)))
(let ((?x7384 (+ ?x7491 ?x4101)))
(let ((?x11140 (+ ?x7384 ?x8186)))
(let ((?x11134 (+ ?x11140 ?x6948)))
(let ((?x6971 (+ ?x11134 ?x3920)))
(let ((?x11279 (- ?x6971 ?x11269)))
(let ((?x6862 (ite (>= ?x11279 0.0) ?x11279 (- 0.0 ?x11279))))
(let ((?x6432 (* (~ 1.0) |ElbowLeft Norm|)))
(let ((?x11508 (* 0.0 |WristLeft Norm|)))
(let ((?x11638 (+ ?x3426 ?x11508)))
(let ((?x8144 (+ ?x11638 ?x6432)))
(let ((?x10946 (+ ?x8144 ?x417)))
(let ((?x11615 (+ ?x10946 ?x4285)))
(let ((?x10831 (+ ?x11615 ?x11271)))
(let ((?x10724 (+ ?x10831 ?x5556)))
(let ((?x6247 (* (~ 1.0) |ElbowRight Norm|)))
(let ((?x1206 (+ ?x6780 ?x6247)))
(let ((?x2801 (+ ?x1206 ?x5302)))
(let ((?x3605 (+ ?x2801 ?x4285)))
(let ((?x7535 (+ ?x3605 ?x11271)))
(let ((?x11018 (+ ?x7535 ?x4421)))
(let ((?x11372 (- ?x11018 ?x10724)))
(let ((?x3488 (ite (>= ?x11372 0.0) ?x11372 (- 0.0 ?x11372))))
(let ((?x7016 (+ ?x4526 ?x11508)))
(let ((?x11639 (+ ?x7016 ?x10998)))
(let ((?x10948 (+ ?x11639 ?x416)))
(let ((?x3594 (+ ?x10948 ?x8186)))
(let ((?x10994 (+ ?x3594 ?x6948)))
(let ((?x10841 (+ ?x10994 ?x5403)))
(let ((?x6097 (+ ?x11186 ?x10839)))
(let ((?x9980 (+ ?x6097 ?x5113)))
(let ((?x6356 (+ ?x9980 ?x8186)))
(let ((?x1807 (+ ?x6356 ?x6948)))
(let ((?x10990 (+ ?x1807 ?x5582)))
(let ((?x3247 (- ?x10990 ?x10841)))
(let ((?x11385 (ite (>= ?x3247 0.0) ?x3247 (- 0.0 ?x3247))))
(let ((?x10626 (ite (>= ?x11385 ?x3488) ?x11385 ?x3488)))
(let (($x2433 (and (and true (> ?x11018 (+ ?x10724 (/ 1.0 10.0)))) (not (< (ite (>= ?x10626 ?x6862) ?x10626 ?x6862) (/ 1.0 5.0))))))
(let ((?x7295 (- |KneeRight Z| |AnkleLeft Z|)))
(let ((?x6363 (- 0.0 ?x7295)))
(let (($x6338 (>= ?x7295 0.0)))
(let ((?x5940 (ite $x6338 ?x7295 ?x6363)))
(let ((?x6352 (- |KneeRight Y| |AnkleLeft Y|)))
(let ((?x6197 (- 0.0 ?x6352)))
(let (($x6650 (>= ?x6352 0.0)))
(let ((?x6337 (ite $x6650 ?x6352 ?x6197)))
(let ((?x6331 (- |KneeRight X| |AnkleLeft X|)))
(let ((?x6773 (- 0.0 ?x6331)))
(let (($x6768 (>= ?x6331 0.0)))
(let ((?x6060 (ite $x6768 ?x6331 ?x6773)))
(let (($x6532 (>= ?x6060 ?x6337)))
(let ((?x6577 (ite $x6532 ?x6060 ?x6337)))
(let (($x6471 (>= ?x6577 ?x5940)))
(let ((?x6520 (ite $x6471 ?x6577 ?x5940)))
(let (($x5939 (< ?x6520 (/ 347.0 1000.0))))
(let (($x6538 (not $x5939)))
(let ((?x7276 (- |KneeLeft Z| |AnkleLeft Z|)))
(let ((?x7288 (- 0.0 ?x7276)))
(let (($x7287 (>= ?x7276 0.0)))
(let ((?x7290 (ite $x7287 ?x7276 ?x7288)))
(let ((?x7275 (- |KneeLeft Y| |AnkleLeft Y|)))
(let ((?x7284 (- 0.0 ?x7275)))
(let (($x7282 (>= ?x7275 0.0)))
(let ((?x7285 (ite $x7282 ?x7275 ?x7284)))
(let ((?x7273 (- |KneeLeft X| |AnkleLeft X|)))
(let ((?x7279 (- 0.0 ?x7273)))
(let (($x7278 (>= ?x7273 0.0)))
(let ((?x7281 (ite $x7278 ?x7273 ?x7279)))
(let (($x7094 (>= ?x7281 ?x7285)))
(let ((?x7095 (ite $x7094 ?x7281 ?x7285)))
(let (($x7096 (>= ?x7095 ?x7290)))
(let ((?x7097 (ite $x7096 ?x7095 ?x7290)))
(let (($x7099 (< ?x7097 (/ 347.0 1000.0))))
(let (($x6204 (not $x7099)))
(let (($x6275 (and true $x6204)))
(let (($x6539 (and $x6275 $x6538)))
(let ((?x6175 (+ 0.0 ?x6247)))
(let ((?x6580 (+ ?x6175 ?x5302)))
(let ((?x8207 (+ ?x6580 ?x4285)))
(let ((?x11011 (+ ?x8207 ?x11271)))
(let ((?x10914 (+ ?x11011 ?x6247)))
(let ((?x10532 (- ?x10914 (/ 1.0 10.0))))
(let ((?x3307 (+ 0.0 ?x1936)))
(let ((?x10815 (+ ?x3307 ?x6247)))
(let ((?x1187 (+ ?x10815 ?x5302)))
(let ((?x1203 (+ ?x1187 ?x4285)))
(let ((?x10965 (+ ?x1203 ?x11271)))
(let ((?x11507 (+ ?x10965 ?x1936)))
(let ((?x11396 (+ 0.0 ?x11508)))
(let ((?x11370 (+ ?x11396 ?x6432)))
(let ((?x2632 (+ ?x11370 ?x417)))
(let ((?x3297 (+ ?x2632 ?x4285)))
(let ((?x3292 (+ ?x3297 ?x11271)))
(let ((?x7071 (+ ?x3292 ?x11508)))
(let ((?x7165 (+ 0.0 ?x6432)))
(let ((?x6101 (+ ?x7165 ?x417)))
(let ((?x10616 (+ ?x6101 ?x4285)))
(let ((?x2510 (+ ?x10616 ?x11271)))
(let ((?x2511 (+ ?x2510 ?x6432)))
(let ((?x624 (- ?x2511 (/ 1.0 10.0))))
(let (($x7259 (and (and (and (and true (< ?x7071 ?x624)) (< ?x11507 ?x624)) (< ?x7071 ?x10532)) (< ?x11507 ?x10532))))
(let (($x1877 (and true true)))
(let (($x4687 (and $x1877 true)))
(let (($x6879 (and (and (and (and (and (and $x4687 $x7259) $x6539) $x2433) true) true) true)))
(let ((?x194 (* (/ 171.0 500.0) 0.0)))
(let ((?x3828 (* (/ 939.0 1000.0) 1.0)))
(let ((?x5439 (+ ?x3828 ?x194)))
(let ((?x197 (* (~ (/ 171.0 500.0)) 0.0)))
(let ((?x4064 (+ ?x3828 ?x197)))
(let ((?x4293 (ite $x350 ?x4064 ?x5439)))
(let ((?x4699 (ite $x5024 1.0 ?x4293)))
(let ((?x187 (* (/ 939.0 1000.0) 0.0)))
(let ((?x321 (+ ?x187 ?x194)))
(let ((?x322 (+ ?x187 ?x197)))
(let ((?x389 (ite $x112 ?x322 ?x321)))
(let ((?x5576 (ite $x5024 ?x389 0.0)))
(let ((?x6214 (* (~ (/ 171.0 500.0)) ?x5576)))
(let ((?x6640 (* (/ 939.0 1000.0) ?x4699)))
(let ((?x6186 (+ ?x6640 ?x6214)))
(let ((?x6223 (* (/ 171.0 500.0) ?x5576)))
(let ((?x6614 (+ ?x6640 ?x6223)))
(let (($x5917 (>= ?x4699 0.0)))
(let ((?x6821 (ite $x5917 ?x6614 ?x6186)))
(let ((?x4166 (* (~ (/ 171.0 500.0)) 1.0)))
(let ((?x4618 (+ ?x4166 ?x187)))
(let ((?x5110 (* (/ 171.0 500.0) 1.0)))
(let ((?x3672 (+ ?x5110 ?x187)))
(let ((?x4560 (ite $x350 ?x3672 ?x4618)))
(let ((?x313 (+ ?x197 ?x187)))
(let ((?x314 (+ ?x194 ?x187)))
(let ((?x385 (ite $x112 ?x314 ?x313)))
(let ((?x5485 (ite $x5024 ?x385 ?x4560)))
(let ((?x5934 (- 0.0 ?x5485)))
(let (($x6151 (>= ?x5485 0.0)))
(let ((?x5914 (ite $x6151 ?x5485 ?x5934)))
(let ((?x5179 (- 0.0 ?x4699)))
(let ((?x6270 (ite $x5917 ?x4699 ?x5179)))
(let (($x11183 (>= ?x6270 ?x5914)))
(let ((?x11147 (ite $x11183 ?x6821 ?x4699)))
(let ((?x3509 (* ?x11147 |WristRight Norm|)))
(let ((?x7116 (+ 0.0 ?x3509)))
(let ((?x5226 (+ ?x7116 ?x6247)))
(let ((?x10557 (+ ?x5226 ?x5302)))
(let ((?x2255 (+ ?x10557 ?x4285)))
(let ((?x1420 (+ ?x2255 ?x11271)))
(let ((?x1422 (+ ?x1420 ?x3509)))
(let ((?x9041 (ite $x5917 ?x6186 ?x6614)))
(let ((?x11006 (ite $x11183 ?x9041 ?x4699)))
(let ((?x11042 (* ?x11006 |WristLeft Norm|)))
(let ((?x1183 (+ 0.0 ?x11042)))
(let ((?x3963 (+ ?x1183 ?x6432)))
(let ((?x11217 (+ ?x3963 ?x417)))
(let ((?x8184 (+ ?x11217 ?x4285)))
(let ((?x3571 (+ ?x8184 ?x11271)))
(let ((?x11877 (+ ?x3571 ?x11042)))
(let (($x10812 (and (and (and (and true (< ?x11877 ?x624)) (< ?x1422 ?x624)) (< ?x11877 ?x10532)) (< ?x1422 ?x10532))))
(let ((?x3957 (- |ThumbRight Z| |ThumbRight Z|)))
(let ((?x5307 (ite (>= ?x3957 0.0) ?x3957 (- 0.0 ?x3957))))
(let ((?x2491 (- |ThumbRight Y| |ThumbRight Y|)))
(let ((?x5303 (ite (>= ?x2491 0.0) ?x2491 (- 0.0 ?x2491))))
(let ((?x5477 (- |ThumbRight X| |ThumbRight X|)))
(let ((?x5294 (ite (>= ?x5477 0.0) ?x5477 (- 0.0 ?x5477))))
(let ((?x4985 (ite (>= ?x5294 ?x5303) ?x5294 ?x5303)))
(let (($x1404 (and (< (ite (>= ?x4985 ?x5307) ?x4985 ?x5307) 15.0))))
(and $x1404 (and (and (and (and $x1877 $x6539) true) true) $x10812) (and (and (and (and $x6879 true) true) true) $x1205))))))))))))))))))))))))))))))))))))))))))))))))))))))))))))))))))))))))))))))))))))))))))))))))))))))))))))))))))))))))))))))))))))))))))))))))))))))))))))))))))))))))))))))))))))))))))))))))))))))))))))))))))))))))))))))))))))))))))))))))))))))))))))))))))))))))))))))))))))))))))))))))))))))))))))))))
(check-sat)
